10	5
0	5	6	1	2	4	3
1	2	5	7
2	2	8	7
3	0
4	2	8	5
5	1	10
6	0
7	1	9
8	1	11
9	1	11
10	1	11
11	0
0	0	0	0	0	0	0
1	10	3	4	0	3	0
2	3	0	3	3	0	0
3	10	1	2	1	2	5
4	4	0	4	0	0	5
5	4	0	3	0	3	3
6	9	2	0	0	0	0
7	6	2	1	0	0	0
8	8	3	1	0	0	5
9	9	0	0	4	0	2
10	6	0	0	0	3	2
11	0	0	0	0	0	0
4	6	4	4	6
